NAME : Instance 9
COMMENT : Comment 9
TYPE : TSP
DIMENSION: 30
EDGE_WEIGHT_TYPE : EUC_2D
NODE_COORD_SECTION
  1 1936 1329
  2 129 290
  3 810 478
  4 907 478
  5 440 1932
  6 685 1263
  7 1663 25
  8 502 1835
  9 1246 1959
  10 1487 858
  11 922 904
  12 920 762
  13 463 715
  14 486 438
  15 1612 860
  16 1927 14
  17 1095 762
  18 390 1478
  19 1065 1584
  20 1716 1884
  21 674 1400
  22 613 1629
  23 1940 1123
  24 1046 918
  25 1284 527
  26 1103 761
  27 201 201
  28 740 1016
  29 987 1603
  30 981 1368
EOF
